O-bMo2C-Mo ... ['Mo', 'C', 'O']
1.0
     5.2420000000000000      0.0000000000000000      0.0000000000000000
     0.0000000000000000      6.0600000000000000      0.0000000000000000
     0.0000000000000000      0.0000000000000000     25.0000000000000000
Mo C  
12 6 
Selective Dynamics
Direct
0.920543	0.122553	0.0470028 F F F #Mo
0.420543	0.877447	0.0470028 F F F
0.420543	0.377447	0.0483373 F F F
0.920543	0.622553	0.0483373 F F F
0.079457	0.377447	0.1423424 T T T
0.579457	0.622553	0.1423424 T T T
0.579457	0.122553	0.1436775 T T T
0.079457	0.877447	0.1436775 T T T
0.920543	0.122553	0.2376826 T T T
0.420543	0.877447	0.2376826 T T T
0.420543	0.377447	0.2390171 T T T
0.920543	0.622553	0.2390171 T T T
0.750000	0.377023	0.0000000 F F F #C
0.250000	0.622977	0.0000000 F F F
0.250000	0.122977	0.0953401 T T T
0.750000	0.877023	0.0953401 T T T
0.750000	0.377023	0.1906798 T T T
0.250000	0.622977	0.1906798 T T T
