Mo2C                                    
   1.00000000000000     
     5.0597718123363506   -0.0000000000000000    0.0000000000000000
     0.0000000000000000    4.7209703524467983    0.0000000000000000
     0.0000000000000000    0.0000000000000000    6.1294473678749695
   C    Mo
     4     8
Direct
  0.5000000000000000  0.7500000000000000  0.1481903732080845
 -0.0000000000000000  0.2500000000000000  0.3518096267919162
  0.5000000000000000  0.2500000000000000  0.8518096267919173
 -0.0000000000000000  0.7500000000000000  0.6481903732080827
  0.2595671275615390  0.1045637889468383  0.1142059487760669
  0.7595671275615404  0.8954362110531586  0.3857940512239341
  0.2404328724384622  0.6045637889468414  0.3857940512239341
  0.7404328724384596  0.3954362110531616  0.1142059487760669
  0.2595671275615390  0.6045637889468414  0.8857940512239332
  0.7595671275615404  0.3954362110531616  0.6142059487760668
  0.2404328724384622  0.1045637889468383  0.6142059487760668
  0.7404328724384596  0.8954362110531586  0.8857940512239332
 
  0.00000000E+00  0.00000000E+00  0.00000000E+00
  0.00000000E+00  0.00000000E+00  0.00000000E+00
  0.00000000E+00  0.00000000E+00  0.00000000E+00
  0.00000000E+00  0.00000000E+00  0.00000000E+00
  0.00000000E+00  0.00000000E+00  0.00000000E+00
  0.00000000E+00  0.00000000E+00  0.00000000E+00
  0.00000000E+00  0.00000000E+00  0.00000000E+00
  0.00000000E+00  0.00000000E+00  0.00000000E+00
  0.00000000E+00  0.00000000E+00  0.00000000E+00
  0.00000000E+00  0.00000000E+00  0.00000000E+00
  0.00000000E+00  0.00000000E+00  0.00000000E+00
  0.00000000E+00  0.00000000E+00  0.00000000E+00
